(set-info :Origin "This instance was generated by: BanditFuzz-- an RL fuzzer for SMT solvers" )
(set-info :Author "Joe Scott, Fed Mora, Vijay Ganesh" )
(set-info :Contact "Joe Scott, joseph.scott@uwaterloo.ca")
; solvers/z3.sh
; 	time => 0.21866106986999512
; 	answer => err
; solvers/bitwuzla.sh
; 	time => 0.16651701927185059
; 	answer => err
; solvers/cvc4.sh
; 	time => 0.15300631523132324
; 	answer => err
(set-logic QF_BV)
(declare-const bool_0 Bool)
(declare-const bool_1 Bool)
(declare-const bool_2 Bool)
(declare-const bool_3 Bool)
(declare-const bool_4 Bool)
(declare-const bv_0 (_ BitVec 8))
(declare-const bv_1 (_ BitVec 8))
(declare-const bv_2 (_ BitVec 8))
(declare-const bv_3 (_ BitVec 8))
(declare-const bv_4 (_ BitVec 8))
(assert (bvule (bvnand (bvurem bv_2 #x0000000b ) (bvsub bv_0 #x000000e7 )) (bvmul (bvor bv_3 #x0000006a ) (bvand #x00000022  bv_3))))
(assert (bvsge (bvshl (bvudiv bv_4 bv_4) (bvmul #x000000c1  bv_1)) (bvmul (bvor bv_1 bv_0) (bvlshr #x0000002e  #x00000034 ))))
(assert (bvuge (bvxor (bvsub bv_2 #x00000076 ) (bvnor #x00000079  bv_0)) (bvashr (bvxor bv_0 bv_4) (bvudiv bv_1 bv_4))))
(assert (bvsgt (bvashr (bvshl bv_0 bv_4) (bvsrem bv_4 #x0000005f )) (bvsub (bvsrem bv_4 #x000000ad ) (bvsub #x000000fb  bv_1))))
(assert (bvuge (bvudiv (bvurem #x000000ec  #x000000cc ) (bvlshr bv_3 bv_3)) (bvand (bvmul #x000000ab  bv_1) (bvadd #x000000f8  #x000000dc ))))
(check-sat)
(exit)
